<number of tasks>
250

<cycle time>
1000

<order strength>
0.6


<task times>
1 409
2 707
3 495
4 542
5 425
6 493
7 374
8 528
9 543
10 512
11 446
12 169
13 598
14 473
15 851
16 419
17 730
18 389
19 684
20 348
21 560
22 592
23 500
24 704
25 296
26 822
27 489
28 567
29 357
30 524
31 594
32 641
33 648
34 580
35 229
36 202
37 528
38 598
39 470
40 316
41 573
42 537
43 574
44 431
45 428
46 276
47 562
48 440
49 490
50 420
51 349
52 500
53 657
54 278
55 479
56 560
57 248
58 464
59 644
60 529
61 311
62 366
63 486
64 446
65 575
66 791
67 462
68 559
69 484
70 318
71 470
72 408
73 497
74 675
75 443
76 620
77 535
78 438
79 355
80 520
81 624
82 441
83 536
84 515
85 574
86 448
87 498
88 682
89 467
90 380
91 572
92 436
93 359
94 421
95 655
96 540
97 493
98 490
99 784
100 348
101 447
102 564
103 417
104 485
105 526
106 530
107 624
108 367
109 338
110 519
111 762
112 446
113 455
114 613
115 674
116 211
117 653
118 535
119 649
120 566
121 803
122 543
123 532
124 590
125 426
126 494
127 400
128 519
129 410
130 435
131 519
132 448
133 483
134 596
135 323
136 525
137 518
138 586
139 550
140 470
141 467
142 472
143 575
144 658
145 519
146 541
147 813
148 409
149 558
150 482
151 436
152 259
153 619
154 584
155 549
156 354
157 520
158 334
159 429
160 604
161 827
162 354
163 627
164 557
165 476
166 376
167 537
168 430
169 539
170 576
171 453
172 582
173 523
174 538
175 566
176 458
177 656
178 504
179 433
180 501
181 516
182 658
183 482
184 378
185 355
186 570
187 477
188 461
189 490
190 576
191 645
192 768
193 393
194 623
195 542
196 488
197 572
198 315
199 577
200 509
201 450
202 292
203 593
204 346
205 529
206 405
207 554
208 609
209 598
210 532
211 549
212 550
213 444
214 323
215 502
216 682
217 359
218 253
219 400
220 664
221 536
222 765
223 637
224 526
225 497
226 461
227 561
228 592
229 363
230 348
231 240
232 569
233 437
234 284
235 316
236 441
237 683
238 526
239 558
240 465
241 400
242 562
243 388
244 568
245 438
246 598
247 528
248 667
249 579
250 562

<precedence relations>
1,7
2,6
2,8
2,10
3,9
4,8
4,10
5,8
5,9
5,10
6,13
7,11
8,12
8,16
8,17
9,14
9,15
9,17
10,15
10,16
10,17
11,19
12,20
13,21
14,23
15,18
15,24
15,25
15,26
15,27
15,28
16,22
16,24
16,25
16,26
16,27
16,28
17,24
17,25
17,26
17,27
17,28
18,29
19,34
20,31
21,32
22,33
23,35
24,30
24,34
24,35
24,36
24,37
25,34
25,35
25,36
25,37
26,34
26,37
27,36
28,51
28,65
28,71
28,72
29,38
30,39
31,40
32,43
33,41
34,42
34,43
35,43
35,44
36,43
36,44
37,52
37,118
37,166
38,45
39,50
40,46
41,47
42,48
43,49
43,50
43,51
43,52
43,53
43,54
43,55
44,52
44,61
44,127
44,144
45,56
46,58
47,59
48,58
49,57
50,65
50,93
50,98
50,99
51,58
51,59
51,61
51,62
51,63
52,167
52,170
52,172
53,58
53,60
53,80
54,64
55,60
55,80
56,66
57,68
58,68
59,68
59,73
60,67
60,68
60,69
60,72
61,171
61,173
61,175
62,137
62,151
62,160
63,69
63,80
63,126
64,68
64,71
64,126
65,70
65,97
65,100
65,110
65,126
66,74
67,75
68,77
68,78
68,79
69,76
69,77
69,79
70,160
70,162
70,180
70,188
70,191
71,119
71,130
71,174
72,78
73,80
73,90
73,127
74,81
75,82
76,83
77,84
77,86
78,84
79,85
80,170
80,172
81,87
82,88
83,89
84,90
84,91
84,92
84,93
85,92
85,93
86,137
87,95
88,96
89,97
90,94
90,98
90,99
90,166
91,98
91,108
92,118
92,180
92,181
93,97
93,100
94,101
95,102
96,103
97,104
97,105
97,106
97,108
97,109
98,110
99,118
100,107
100,129
101,111
102,112
103,113
104,114
105,115
106,117
107,116
108,119
108,162
109,118
109,143
109,150
110,118
111,121
112,120
113,126
114,127
115,125
116,124
117,125
118,122
118,130
118,131
118,156
119,123
119,128
119,129
120,132
121,133
122,135
123,136
124,137
125,134
125,137
125,153
125,166
125,179
125,181
126,137
126,138
126,143
127,137
127,156
128,182
128,199
128,235
129,138
130,213
131,144
131,160
131,169
132,142
133,139
134,140
135,141
136,143
137,145
138,144
138,170
138,176
138,192
138,225
138,243
138,249
139,146
140,147
141,149
142,148
143,151
143,152
143,153
145,150
146,154
147,155
148,156
149,190
149,191
150,158
150,159
151,157
151,175
152,160
152,172
152,176
152,177
153,170
153,176
154,161
155,162
156,214
157,166
157,186
157,225
158,165
158,167
159,164
159,183
159,236
159,249
160,163
160,164
160,183
160,186
161,168
162,250
164,170
164,225
165,174
165,234
167,169
168,172
169,171
169,173
169,174
169,175
169,176
169,177
170,171
170,182
170,234
171,178
171,215
172,179
172,180
172,181
172,182
173,214
174,189
174,191
175,183
175,185
176,186
176,236
176,250
177,214
177,244
178,184
179,186
180,237
181,185
182,215
183,213
183,215
184,187
185,188
185,190
185,191
185,192
186,189
186,190
186,193
187,194
188,195
188,196
188,198
188,201
189,197
189,215
190,199
191,200
191,201
191,203
191,204
192,248
193,202
194,206
195,208
196,210
197,211
198,212
199,205
199,214
200,207
200,226
201,209
201,235
201,248
202,213
202,215
204,237
205,218
206,216
207,219
208,220
209,221
210,225
211,222
212,223
213,217
214,224
214,227
215,226
215,244
216,228
217,229
218,234
219,230
220,232
221,233
222,235
223,236
224,231
224,245
226,247
227,237
228,238
229,240
230,242
231,239
232,243
233,241
234,247
235,245
236,244
238,247
239,248
240,246
241,247
242,249
243,250

<end>
